7902
24, 5, 6, 4, 25, 12, 51, 11, 52, 14, 13, 47, 26, 27, 28, 46, 44, 16, 29, 50, 20, 23, 30, 2, 7, 42, 21, 17, 3, 18, 31, 22, 1, 49, 32, 45, 19, 41, 8, 9, 10, 33, 43, 15, 38, 40, 39, 36, 35, 34, 37, 48
